data;

param num_top:=5;

#nodes and edges of the physical network
param n := 10;

set E := (1,2) (1,3) (1,7) (2,4) (2,7) (3,5) (4,8) (5,6) (5,7) (6,7) (6,9) (7,8) (7,9) (8,10) (9,10) ;

#nodes and edges of the virtual networks
set Nl[1] := 7 10 1 3 ;
set Nl[2] := 2 9 10 5 ;
set Nl[3] := 5 7 10 9 3 ;
set Nl[4] := 7 1 9 3 10 ;
set Nl[5] := 2 3 8 4 ;

set El[1] := (7,10) (1,10) (1,3) (3,7) ;
set El[2] := (2,9) (9,10) (5,10) (2,5) (2,10) (5,9) ;
set El[3] := (5,7) (7,10) (9,10) (3,9) (3,5) ;
set El[4] := (1,7) (1,9) (3,9) (3,10) (7,10) (3,7) (9,10) (1,10) (1,3) (7,9) ;
set El[5] := (2,3) (3,8) (4,8) (2,4) (3,4) (2,8) ;
